c turning on binary mode checking
c parsing input formula with 259840 variables and 1039934 clauses
c finished parsing, read 23090029 bytes from proof file
c detected empty clause; start verification via backward checking
c 9862 of 1039934 clauses in core                            
c 13094 of 602959 lemmas in core using 75478 resolution steps
c 0 RAT lemmas in core; 683 redundant literals in core lemmas
s VERIFIED
c verification time: 2.784 seconds
